letting n =  10
letting blocks =  [[1, 3], [1, 4], [1, 6], [1, 7], [1, 8], [2, 5], [2, 6], [3, 3], [3, 5], [3, 8], [4, 2], [4, 10], [5, 1], [5, 5], [7, 3], [7, 4], [7, 6], [7, 7], [8, 1], [8, 4], [8, 6], [8, 7], [8, 10], [9, 1], [9, 2], [9, 4], [9, 5], [9, 7], [10, 1], [10, 2], [10, 3], [10, 4], [10, 9], [10, 10]]
